-1	20	25	33	33	43	56	64	62	71	79	87	95
20	-1	19	35	43	51	66	73	68	79	86	94	101
25	19	-1	17	28	34	50	56	51	62	69	76	83
33	35	17	-1	16	19	35	40	35	46	53	60	67
33	43	28	16	-1	10	24	31	29	38	46	54	62
43	51	34	19	10	-1	16	22	19	29	37	44	52
56	66	50	35	24	16	-1	8	12	16	24	32	40
64	73	56	40	31	22	8	-1	8	8	16	24	32
62	68	51	35	29	19	12	8	-1	12	18	26	33
71	79	62	46	38	29	16	8	12	-1	8	16	24
79	86	69	53	46	37	24	16	18	8	-1	8	16
87	94	76	60	54	44	32	24	26	16	8	-1	8
95	101	83	67	62	52	40	32	33	24	16	8	-1